N_J = 28;
N_H = 22;
N_D = 1;
y = 6;
a = 1;
b = 1;
D = [
[0, 2, 4, 3, 1, 0, 3, 5, 5, 5, 2, 3, 4, 4, 4, 1, 1, 1, 3, 3, 4, 2, 0],
[2, 1, 3, 3, 2, 0, 4, 1, 0, 0, 5, 5, 3, 2, 1, 5, 2, 0, 3, 0, 5, 4, 0],
[1, 5, 5, 2, 3, 5, 2, 5, 2, 3, 3, 4, 5, 4, 4, 4, 3, 1, 3, 5, 0, 0, 0],
[1, 5, 4, 5, 2, 4, 4, 5, 5, 0, 0, 0, 5, 2, 5, 2, 1, 3, 0, 4, 4, 4, 0],
[2, 1, 5, 5, 5, 4, 3, 5, 4, 1, 3, 1, 4, 3, 0, 1, 1, 1, 5, 2, 2, 4, 0],
[2, 4, 2, 0, 3, 4, 0, 4, 2, 1, 2, 2, 4, 0, 4, 0, 0, 5, 2, 0, 3, 2, 0],
[5, 3, 4, 3, 0, 0, 4, 4, 5, 0, 4, 4, 3, 1, 5, 2, 0, 4, 3, 5, 0, 3, 0],
[0, 2, 4, 3, 1, 0, 3, 5, 5, 5, 2, 3, 4, 4, 4, 1, 1, 1, 3, 3, 4, 2, 0],
[2, 1, 3, 3, 2, 0, 4, 1, 0, 0, 5, 5, 3, 2, 1, 5, 2, 0, 3, 0, 5, 4, 0],
[1, 5, 5, 2, 3, 5, 2, 5, 2, 3, 3, 4, 5, 4, 4, 4, 3, 1, 3, 5, 0, 0, 0],
[1, 5, 4, 5, 2, 4, 4, 5, 5, 0, 0, 0, 5, 2, 5, 2, 1, 3, 0, 4, 4, 4, 0],
[2, 1, 5, 5, 5, 4, 3, 5, 4, 1, 3, 1, 4, 3, 0, 1, 1, 1, 5, 2, 2, 4, 0],
[2, 4, 2, 0, 3, 4, 0, 4, 2, 1, 2, 2, 4, 0, 4, 0, 0, 5, 2, 0, 3, 2, 0],
[5, 3, 4, 3, 0, 0, 4, 4, 5, 0, 4, 4, 3, 1, 5, 2, 0, 4, 3, 5, 0, 3, 0],
[0, 2, 4, 3, 1, 0, 3, 5, 5, 5, 2, 3, 4, 4, 4, 1, 1, 1, 3, 3, 4, 2, 0],
[2, 1, 3, 3, 2, 0, 4, 1, 0, 0, 5, 5, 3, 2, 1, 5, 2, 0, 3, 0, 5, 4, 0],
[1, 5, 5, 2, 3, 5, 2, 5, 2, 3, 3, 4, 5, 4, 4, 4, 3, 1, 3, 5, 0, 0, 0],
[1, 5, 4, 5, 2, 4, 4, 5, 5, 0, 0, 0, 5, 2, 5, 2, 1, 3, 0, 4, 4, 4, 0],
[2, 1, 5, 5, 5, 4, 3, 5, 4, 1, 3, 1, 4, 3, 0, 1, 1, 1, 5, 2, 2, 4, 0],
[2, 4, 2, 0, 3, 4, 0, 4, 2, 1, 2, 2, 4, 0, 4, 0, 0, 5, 2, 0, 3, 2, 0],
[5, 3, 4, 3, 0, 0, 4, 4, 5, 0, 4, 4, 3, 1, 5, 2, 0, 4, 3, 5, 0, 3, 0],
[0, 2, 4, 3, 1, 0, 3, 5, 5, 5, 2, 3, 4, 4, 4, 1, 1, 1, 3, 3, 4, 2, 0],
[2, 1, 3, 3, 2, 0, 4, 1, 0, 0, 5, 5, 3, 2, 1, 5, 2, 0, 3, 0, 5, 4, 0],
[1, 5, 5, 2, 3, 5, 2, 5, 2, 3, 3, 4, 5, 4, 4, 4, 3, 1, 3, 5, 0, 0, 0],
[1, 5, 4, 5, 2, 4, 4, 5, 5, 0, 0, 0, 5, 2, 5, 2, 1, 3, 0, 4, 4, 4, 0],
[2, 1, 5, 5, 5, 4, 3, 5, 4, 1, 3, 1, 4, 3, 0, 1, 1, 1, 5, 2, 2, 4, 0],
[2, 4, 2, 0, 3, 4, 0, 4, 2, 1, 2, 2, 4, 0, 4, 0, 0, 5, 2, 0, 3, 2, 0],
[5, 3, 4, 3, 0, 0, 4, 4, 5, 0, 4, 4, 3, 1, 5, 2, 0, 4, 3, 5, 0, 3, 0],
[0, 0, 0, 0, 0, 0, 0, 0, 0, 0, 0, 0, 0, 0, 0, 0, 0, 0, 0, 0, 0, 0, 0]
];
M = 30;
I = [
[3, 4, 1, 3, 3, 2, 1, 6, 3, 2, 5, 1, 0, 6, 1, 5, 2, 4, 1, 5, 2, 1, 0],
[5, 0, 1, 1, 4, 4, 1, 2, 1, 0, 1, 2, 2, 0, 1, 1, 6, 3, 0, 6, 1, 5, 0],
[4, 5, 0, 6, 3, 3, 0, 1, 5, 3, 2, 6, 2, 2, 1, 3, 3, 4, 4, 2, 2, 0, 0],
[4, 5, 4, 0, 2, 3, 5, 0, 2, 6, 1, 4, 3, 6, 4, 1, 3, 5, 0, 2, 5, 0, 0],
[4, 6, 2, 3, 1, 1, 5, 4, 2, 2, 2, 6, 2, 5, 5, 3, 3, 6, 2, 2, 5, 4, 0],
[2, 2, 2, 6, 4, 4, 5, 0, 1, 0, 0, 0, 3, 5, 1, 4, 3, 3, 6, 1, 2, 1, 0],
[3, 2, 6, 3, 3, 4, 1, 4, 3, 3, 6, 1, 4, 5, 1, 6, 4, 4, 2, 5, 0, 3, 0],
[3, 4, 1, 3, 3, 2, 1, 6, 3, 2, 5, 1, 0, 6, 1, 5, 2, 4, 1, 5, 2, 1, 0],
[5, 0, 1, 1, 4, 4, 1, 2, 1, 0, 1, 2, 2, 0, 1, 1, 6, 3, 0, 6, 1, 5, 0],
[4, 5, 0, 6, 3, 3, 0, 1, 5, 3, 2, 6, 2, 2, 1, 3, 3, 4, 4, 2, 2, 0, 0],
[4, 5, 4, 0, 2, 3, 5, 0, 2, 6, 1, 4, 3, 6, 4, 1, 3, 5, 0, 2, 5, 0, 0],
[4, 6, 2, 3, 1, 1, 5, 4, 2, 2, 2, 6, 2, 5, 5, 3, 3, 6, 2, 2, 5, 4, 0],
[2, 2, 2, 6, 4, 4, 5, 0, 1, 0, 0, 0, 3, 5, 1, 4, 3, 3, 6, 1, 2, 1, 0],
[3, 2, 6, 3, 3, 4, 1, 4, 3, 3, 6, 1, 4, 5, 1, 6, 4, 4, 2, 5, 0, 3, 0],
[3, 4, 1, 3, 3, 2, 1, 6, 3, 2, 5, 1, 0, 6, 1, 5, 2, 4, 1, 5, 2, 1, 0],
[5, 0, 1, 1, 4, 4, 1, 2, 1, 0, 1, 2, 2, 0, 1, 1, 6, 3, 0, 6, 1, 5, 0],
[4, 5, 0, 6, 3, 3, 0, 1, 5, 3, 2, 6, 2, 2, 1, 3, 3, 4, 4, 2, 2, 0, 0],
[4, 5, 4, 0, 2, 3, 5, 0, 2, 6, 1, 4, 3, 6, 4, 1, 3, 5, 0, 2, 5, 0, 0],
[4, 6, 2, 3, 1, 1, 5, 4, 2, 2, 2, 6, 2, 5, 5, 3, 3, 6, 2, 2, 5, 4, 0],
[2, 2, 2, 6, 4, 4, 5, 0, 1, 0, 0, 0, 3, 5, 1, 4, 3, 3, 6, 1, 2, 1, 0],
[3, 2, 6, 3, 3, 4, 1, 4, 3, 3, 6, 1, 4, 5, 1, 6, 4, 4, 2, 5, 0, 3, 0],
[3, 4, 1, 3, 3, 2, 1, 6, 3, 2, 5, 1, 0, 6, 1, 5, 2, 4, 1, 5, 2, 1, 0],
[5, 0, 1, 1, 4, 4, 1, 2, 1, 0, 1, 2, 2, 0, 1, 1, 6, 3, 0, 6, 1, 5, 0],
[4, 5, 0, 6, 3, 3, 0, 1, 5, 3, 2, 6, 2, 2, 1, 3, 3, 4, 4, 2, 2, 0, 0],
[4, 5, 4, 0, 2, 3, 5, 0, 2, 6, 1, 4, 3, 6, 4, 1, 3, 5, 0, 2, 5, 0, 0],
[4, 6, 2, 3, 1, 1, 5, 4, 2, 2, 2, 6, 2, 5, 5, 3, 3, 6, 2, 2, 5, 4, 0],
[2, 2, 2, 6, 4, 4, 5, 0, 1, 0, 0, 0, 3, 5, 1, 4, 3, 3, 6, 1, 2, 1, 0],
[3, 2, 6, 3, 3, 4, 1, 4, 3, 3, 6, 1, 4, 5, 1, 6, 4, 4, 2, 5, 0, 3, 0],
[0, 0, 0, 0, 0, 0, 0, 0, 0, 0, 0, 0, 0, 0, 0, 0, 0, 0, 0, 0, 0, 0, 0]
];
F = [
[0, 1, 0, 0, 0, 0, 1, 1, 0, 0, 0, 0, 0, 0, 0, 1, 1, 1, 0, 1, 0, 0, 0],
[0, 1, 1, 1, 0, 0, 0, 0, 0, 0, 0, 1, 0, 0, 0, 0, 1, 1, 0, 1, 1, 1, 0],
[1, 0, 0, 1, 0, 0, 1, 1, 0, 0, 0, 1, 0, 0, 1, 1, 1, 0, 0, 0, 1, 1, 0],
[0, 1, 1, 1, 1, 0, 0, 0, 0, 0, 0, 1, 1, 0, 0, 0, 1, 0, 0, 1, 0, 1, 0],
[1, 1, 1, 0, 0, 0, 0, 0, 1, 0, 1, 1, 1, 1, 1, 0, 0, 0, 1, 1, 0, 1, 0],
[0, 1, 1, 0, 1, 1, 0, 0, 1, 1, 1, 0, 1, 1, 0, 1, 1, 1, 1, 1, 1, 1, 0],
[1, 0, 1, 1, 0, 0, 0, 0, 1, 0, 1, 0, 1, 1, 1, 1, 1, 1, 1, 1, 1, 0, 0],
[0, 1, 0, 0, 0, 0, 1, 1, 0, 0, 0, 0, 0, 0, 0, 1, 1, 1, 0, 1, 0, 0, 0],
[0, 1, 1, 1, 0, 0, 0, 0, 0, 0, 0, 1, 0, 0, 0, 0, 1, 1, 0, 1, 1, 1, 0],
[1, 0, 0, 1, 0, 0, 1, 1, 0, 0, 0, 1, 0, 0, 1, 1, 1, 0, 0, 0, 1, 1, 0],
[0, 1, 1, 1, 1, 0, 0, 0, 0, 0, 0, 1, 1, 0, 0, 0, 1, 0, 0, 1, 0, 1, 0],
[1, 1, 1, 0, 0, 0, 0, 0, 1, 0, 1, 1, 1, 1, 1, 0, 0, 0, 1, 1, 0, 1, 0],
[0, 1, 1, 0, 1, 1, 0, 0, 1, 1, 1, 0, 1, 1, 0, 1, 1, 1, 1, 1, 1, 1, 0],
[1, 0, 1, 1, 0, 0, 0, 0, 1, 0, 1, 0, 1, 1, 1, 1, 1, 1, 1, 1, 1, 0, 0],
[0, 1, 0, 0, 0, 0, 1, 1, 0, 0, 0, 0, 0, 0, 0, 1, 1, 1, 0, 1, 0, 0, 0],
[0, 1, 1, 1, 0, 0, 0, 0, 0, 0, 0, 1, 0, 0, 0, 0, 1, 1, 0, 1, 1, 1, 0],
[1, 0, 0, 1, 0, 0, 1, 1, 0, 0, 0, 1, 0, 0, 1, 1, 1, 0, 0, 0, 1, 1, 0],
[0, 1, 1, 1, 1, 0, 0, 0, 0, 0, 0, 1, 1, 0, 0, 0, 1, 0, 0, 1, 0, 1, 0],
[1, 1, 1, 0, 0, 0, 0, 0, 1, 0, 1, 1, 1, 1, 1, 0, 0, 0, 1, 1, 0, 1, 0],
[0, 1, 1, 0, 1, 1, 0, 0, 1, 1, 1, 0, 1, 1, 0, 1, 1, 1, 1, 1, 1, 1, 0],
[1, 0, 1, 1, 0, 0, 0, 0, 1, 0, 1, 0, 1, 1, 1, 1, 1, 1, 1, 1, 1, 0, 0],
[0, 1, 0, 0, 0, 0, 1, 1, 0, 0, 0, 0, 0, 0, 0, 1, 1, 1, 0, 1, 0, 0, 0],
[0, 1, 1, 1, 0, 0, 0, 0, 0, 0, 0, 1, 0, 0, 0, 0, 1, 1, 0, 1, 1, 1, 0],
[1, 0, 0, 1, 0, 0, 1, 1, 0, 0, 0, 1, 0, 0, 1, 1, 1, 0, 0, 0, 1, 1, 0],
[0, 1, 1, 1, 1, 0, 0, 0, 0, 0, 0, 1, 1, 0, 0, 0, 1, 0, 0, 1, 0, 1, 0],
[1, 1, 1, 0, 0, 0, 0, 0, 1, 0, 1, 1, 1, 1, 1, 0, 0, 0, 1, 1, 0, 1, 0],
[0, 1, 1, 0, 1, 1, 0, 0, 1, 1, 1, 0, 1, 1, 0, 1, 1, 1, 1, 1, 1, 1, 0],
[1, 0, 1, 1, 0, 0, 0, 0, 1, 0, 1, 0, 1, 1, 1, 1, 1, 1, 1, 1, 1, 0, 0],
[0, 0, 0, 0, 0, 0, 0, 0, 0, 0, 0, 0, 0, 0, 0, 0, 0, 0, 0, 0, 0, 0, 0]
];
N_P = 76;
n = [2, 3, 2, 1, 3, 2, 1, 2, 2, 2, 2, 2, 2, 3, 3, 1, 2, 1, 2, 3, 3, 2, 3, 3, 3, 1, 1, 1, 2, 1, 1, 1, 1, 1, 1, 2, 2, 3, 1, 3, 2, 2, 3, 1, 1, 2, 2, 1, 1, 3, 1, 3, 1, 3, 3, 1, 2, 2, 3, 3, 2, 2, 1, 1, 2, 1, 2, 1, 3, 2, 3, 3, 3, 2, 3, 2];
p_C = [3, 2, 3, 0, 0, 1, 0, 1, 0, 0, 2, 0, 0, 0, 2, 1, 0, 2, 0, 2, 3, 1, 3, 3, 2, 2, 3, 3, 3, 3, 3, 3, 3, 3, 1, 3, 1, 0, 1, 2, 0, 2, 3, 1, 1, 1, 0, 2, 3, 3, 0, 1, 3, 2, 1, 0, 2, 3, 1, 0, 1, 1, 0, 0, 1, 0, 1, 1, 3, 1, 2, 3, 1, 2, 0, 3];
p_D = [2, 0, 0, 3, 3, 2, 2, 2, 3, 1, 0, 1, 3, 0, 3, 0, 1, 3, 0, 1, 0, 2, 3, 1, 3, 2, 0, 3, 3, 2, 3, 0, 2, 0, 0, 0, 1, 2, 2, 1, 2, 2, 3, 0, 1, 1, 3, 0, 2, 2, 2, 1, 2, 2, 0, 0, 2, 2, 1, 0, 1, 0, 3, 1, 1, 0, 2, 0, 1, 3, 1, 0, 0, 1, 2, 0];
Delta = [
[0, 2],
[0, 3, 2],
[0, 1],
[0],
[0, 2, 3],
[0, 1],
[0],
[0, 2],
[0, 1],
[0, 2],
[0, 3],
[0, 1],
[0, 1],
[0, 3, 3],
[0, 1, 3],
[0],
[0, 1],
[0],
[0, 3],
[0, 1, 2],
[0, 3, 2],
[0, 1],
[0, 2, 2],
[0, 2, 3],
[0, 2, 1],
[0],
[0],
[0],
[0, 3],
[0],
[0],
[0],
[0],
[0],
[0],
[0, 2],
[0, 2],
[0, 1, 2],
[0],
[0, 2, 2],
[0, 1],
[0, 3],
[0, 1, 1],
[0],
[0],
[0, 2],
[0, 3],
[0],
[0],
[0, 1, 3],
[0],
[0, 2, 1],
[0],
[0, 2, 3],
[0, 1, 2],
[0],
[0, 2],
[0, 1],
[0, 2, 1],
[0, 1, 2],
[0, 1],
[0, 2],
[0],
[0],
[0, 1],
[0],
[0, 1],
[0],
[0, 1, 1],
[0, 1],
[0, 2, 2],
[0, 1, 2],
[0, 2, 1],
[0, 1],
[0, 1, 1],
[0, 1]
];
e_A = [
[0, 1],
[1, 1, 0],
[1, 0],
[1],
[0, 0, 0],
[0, 0],
[0],
[0, 1],
[1, 1],
[0, 0],
[1, 1],
[1, 1],
[1, 1],
[1, 1, 1],
[0, 1, 1],
[0],
[1, 0],
[0],
[1, 1],
[1, 0, 1],
[0, 1, 1],
[0, 1],
[0, 0, 1],
[0, 1, 0],
[0, 1, 1],
[1],
[0],
[0],
[0, 1],
[0],
[1],
[1],
[1],
[1],
[1],
[1, 1],
[0, 0],
[0, 1, 1],
[1],
[1, 0, 1],
[0, 0],
[0, 1],
[1, 0, 0],
[0],
[0],
[0, 0],
[0, 1],
[1],
[1],
[0, 0, 0],
[0],
[0, 1, 0],
[1],
[1, 0, 0],
[0, 0, 0],
[0],
[0, 0],
[0, 0],
[0, 1, 1],
[1, 1, 0],
[1, 1],
[0, 0],
[0],
[1],
[0, 0],
[0],
[1, 1],
[0],
[0, 1, 0],
[0, 0],
[1, 1, 0],
[0, 0, 0],
[0, 1, 0],
[0, 0],
[1, 1, 0],
[1, 0]
];
e_C = [
[0, 1],
[1, 1, 1],
[0, 1],
[1],
[0, 0, 0],
[1, 1],
[1],
[1, 0],
[0, 0],
[1, 0],
[1, 1],
[0, 1],
[1, 1],
[0, 0, 0],
[0, 0, 0],
[1],
[0, 0],
[1],
[1, 1],
[1, 0, 1],
[1, 0, 1],
[1, 1],
[0, 0, 1],
[1, 0, 0],
[1, 1, 0],
[1],
[1],
[0],
[0, 1],
[1],
[1],
[0],
[0],
[0],
[1],
[0, 0],
[0, 0],
[1, 1, 1],
[0],
[1, 0, 1],
[1, 0],
[0, 1],
[1, 1, 0],
[0],
[1],
[1, 0],
[0, 0],
[1],
[1],
[1, 0, 0],
[0],
[1, 1, 1],
[0],
[1, 1, 0],
[0, 1, 0],
[1],
[0, 0],
[1, 0],
[0, 1, 0],
[0, 1, 1],
[0, 0],
[0, 1],
[1],
[0],
[1, 1],
[0],
[0, 1],
[0],
[1, 1, 1],
[0, 1],
[0, 0, 0],
[1, 1, 0],
[0, 1, 0],
[0, 0],
[1, 0, 0],
[0, 1]
];
